NAME : single
TYPE : ATSP
DIMENSION : 8
EDGE_WEIGHT_TYPE : EXPLICIT
EDGE_WEIGHT_FORMAT : FULL_MATRIX
EDGE_WEIGHT_SECTION
0 50000 50000 50000 50000 50000 50000 50000 
0 0 173 253 289 329 581 606 
0 173 0 123 194 243 495 522 
0 253 123 0 76 144 451 491 
0 289 194 76 0 79 383 400 
0 329 243 144 79 0 240 269 
0 581 495 451 383 240 0 172 
0 606 522 491 400 269 172 0 
EOF